3 3 2
20 1 92 0 88 1 29 2 18 0 61 1 93 0 23 1 64 0 68 2 34 1 4 0 86 2 22 1 70 0 84 2 78 0 56 2 34 0 15 2 62 
20 0 44 1 58 0 53 2 72 1 70 0 70 1 7 2 24 0 1 1 88 0 28 2 26 0 68 2 83 1 34 0 99 2 6 0 79 1 41 2 15 
20 1 92 2 8 0 81 1 64 2 9 1 80 0 53 1 62 0 84 2 68 1 4 0 51 1 33 2 90 0 3 1 79 2 9 0 43 2 40 0 47 

-------------
